c ====================[ Coprocessor 7.1.0                    v7.1.0-dirty ]================================
c | Norbert Manthey. The use of the tool is limited to research only!                                     |
c | Contributors:                                                                                         |
c |     Kilian Gebhard                                                                                    |
c |     Lucas Kahlert, Franziska Krüger, Aaron Stephan                                                    |
c ============================[ Problem Statistics ]=======================================================
c |                                                                                                       |
c |  Number of variables:           360                                                                  |
c |  Number of clauses:            1980                                                                   |
c |  Parse time:                   0.00 s                                                                 |
c [STAT] CP3 0.01063 s-ppTime, 0 s-ipTime, 0.0174293 s-ppwTime, 0 s-ipwTime, 9 MB, ok 5.2e-05 s-ohTime, 
c [STAT] CP3(2) 2987 cls, 0 learnts, -1007 rem-cls, 0 rem-learnts, 
c [STAT] UP 4e-06 s, 0 units, 0 cls, 0 lits
c [STAT] SuSi(1) 9e-05 s, 0 cls,  with 0 lits, 0 strengthed 
c [STAT] SuSi(2) 14981 subs-steps, 25989 strenght-steps, 0 increases, 0.001314s strengthening 
c [STAT] EE 0.001018 s, 0 steps 0 ee-lits 0 removedCls, 0 removedSubCls,
c [STAT] EE-gate 6e-05 s, 0 steps, 0.00081 extractGateTime, 
c [STAT] BVE(1) 0.000968 s, 0.000152 s spent on subsimp, 54 vars tested, 54 anticipations, 612 vars skipped, 3341 checks, 
c [STAT] BVE(2) 453 rem cls, with 1424 lits, 0 learnts rem, with 0 lits, 1460 new cls, with 6169 lits, 0 new learnts, with 0 lits, 
c [STAT] BVE(3) 31 vars eliminated, 0 units enqueued, 0 BC removed, with 0 lits, 0 blocked learnts removed, with 0 lits, 
c [STAT] BVE(4) 0 gateDefs, 0 usedGates, 0 gateSeconds, 
c [STAT] BVE(5) 31 incElims, 0 keepElims, 0 decElims, 1007 totalAdds,
c [STAT] UNHIDE 0.002381 s, 0 cls, 0 totalLits, 0 lits 
c [STAT] UNHIDE(2) 0 prSecs, 0 prSteps, 0 L1units, 0 L2units, 0 L3units, 0 L4units, 0 L5units, 
c [STAT] UNHIDE(3) 0 EE-checks, 0 EE-cands, 0 EEs 
c [STAT] XOR 0s, 0 parse-s, 0 reason-s, 
c [STAT] XOR(2) 0 xors, 0 subXors, 0 resXors, 0 clauses, 0 resClauses, 0 resTauts, 0 resStrength, 4962 findChecks, 
c [STAT] XOR(3) 0 steps, 720 empties, 0 listUnits, 0 useLists, 0 xorUnits, 0 eqs, 
c [STAT] XOR(4) 2983 participating, 0.867151 ratio, 0 simDecisions, 0 xorProps, 0 clsProps, 
c [STAT] BCE 0.000545 seconds, 21746 steps, 1316 testLits, 0 remBCE, 0 BCMs, 0 BCMcands, 0 BCMlits, 
c [STAT] CLE 0 remCLE, 0 cleUnits, 
c [STAT] BCE-CLA 0 seconds, 0 steps, 0 testLits, 0 extClss, 0 extLits, 0 possibles, 
c [STAT] FM 0.004077 s, 0.000139 amo-s, 0.005387 fm-s, 0.000531 amt-s, 0 amos, 0 amts, 0 sameUnits, 0 deducedUnits, 0 propUnits, 0 cls, 0 steps, 30940 searchSteps, 0 addDups, 
c [STAT] FM(2) 0 irregulars, 0 pureAmoLits, 0 diff, 0 discards, 0 addedCs, 0 removedCs, 0 newAmos, 0 discardedNewAmos, 
c [STAT] FM(3) 0 newAmoBinCls, 0 newCls, 0 newAlos, 0 newAlks, 0 duplicates, 0 garbageCollecst, 
c [STAT] FM(4) 3e-06 2PrdTime, 0 2PrAmos, 0 2PrLits, 1e-06 dedAloTime, 0 dedAlos, 
c [STAT] FM(5) time: 0.003275 s,steps: 29586 cards: 0 failed: 4967 extLits: 0 redDegree: 0 probes: 5529 conflictProbes: 0 savedPreCls: 0 savedPostCls: 0 units: 13354
c [STAT] DENSE 31 gaps
c |  Simplification time:          0.01 s                                                                 |
c |                                                                                                       |
c ==============================[ Writing DIMACS ]=========================================================
c =============================[ Writing Undo Info ]=======================================================
c write undo for 266 clauses and 0 units
c preprocessed 0 seconds
c starting sparrow solver
c Instance name       :  /home/lorenz/SAT2018/s2r_bin/tmp/cp_tmpCNF_48936
c Number of variables :  329
c Number of literals  :  658
c Number of Clauses   :  2987
c MaxNumOccurences    :  67
c MaxClauseSize       :  6
c MinClauseSize       :  3
c Ratio               :  9.0790
c Parameter setting   :  7 SAT

c Sparrow 2014 Parameteres: 
c c1                  : 6.5000
c c2                  : 4
c c3                  : 100000
c smoothing prob.     : 0.830
c seed                : 0
c XOR implementation  : yes
c using:              : random clause selection
c maxTries            : 9223372036854775807
c maxFlips            : 500000000
c timeout             : 900sec
c luby restarts       : yes
c luby base           : 262144
c keep assignement    : yes
c sp sequence:        : 0.000, 0.100, 0.600, 1.000, 0.900, 0.600, 0.800, 0.600, 0.000, 
c -->Starting solver  : 

c UNKNOWN best(   1) current(   1) (3.57000        sec)
c EndStatistics:
c numFlips                      : 13722880 
c numProbWalks                  : 13319838  (97.06%) 
c gradientWalks                 : 403042    (2.94%) 
c numSmooth                     : 0         (0.00%) 
c numWeight                     : 0         (0.00%) 
c Try CPU Time                  : 3.570   
c totalTries                    : 508      
c totalFlips                    : 500000000
c flips/sec                     : 2932895 
c Total CPU Time                : 170.480 sec
c solved 171 seconds
c parse model from /home/lorenz/SAT2018/s2r_bin/tmp/cp_model_48936
c WARNING: could not find any solution information!
c opened var map /home/lorenz/SAT2018/s2r_bin/tmp/cp_undo_48936.map for reading ... 
c use Riss 7.1
c [STAT] CP3 0.003852 s-ppTime, 0 s-ipTime, 0.00782969 s-ppwTime, 0 s-ipwTime, 9 MB, ok 0.000328 s-ohTime, 
c [STAT] CP3(2) 2802 cls, 0 learnts, -822 rem-cls, 0 rem-learnts, 
c [STAT] UP 1e-06 s, 0 units, 0 cls, 0 lits
c [STAT] SuSi(1) 0.000195 s, 0 cls,  with 0 lits, 0 strengthed 
c [STAT] SuSi(2) 14177 subs-steps, 30841 strenght-steps, 0 increases, 0.00046s strengthening 
c [STAT] EE 0.000475 s, 0 steps 0 ee-lits 0 removedCls, 0 removedSubCls,
c [STAT] EE-gate 3.9e-05 s, 0 steps, 0.000363 extractGateTime, 
c [STAT] BVE(1) 0.00087 s, 0.00068 s spent on subsimp, 45 vars tested, 45 anticipations, 622 vars skipped, 2662 checks, 
c [STAT] BVE(2) 499 rem cls, with 1517 lits, 0 learnts rem, with 0 lits, 1321 new cls, with 5414 lits, 0 new learnts, with 0 lits, 
c [STAT] BVE(3) 45 vars eliminated, 0 units enqueued, 0 BC removed, with 0 lits, 0 blocked learnts removed, with 0 lits, 
c [STAT] BVE(4) 0 gateDefs, 0 usedGates, 1.7e-05 gateSeconds, 
c [STAT] BVE(5) 43 incElims, 0 keepElims, 2 decElims, 822 totalAdds,
c [STAT] UNHIDE 0.000878 s, 0 cls, 0 totalLits, 0 lits 
c [STAT] UNHIDE(2) 0 prSecs, 0 prSteps, 0 L1units, 0 L2units, 0 L3units, 0 L4units, 0 L5units, 
c [STAT] UNHIDE(3) 0 EE-checks, 0 EE-cands, 0 EEs 
c [STAT] XOR 0.000292s, 0.000269 parse-s, 1.5e-05 reason-s, 
c [STAT] XOR(2) 0 xors, 0 subXors, 0 resXors, 0 clauses, 0 resClauses, 0 resTauts, 0 resStrength, 4778 findChecks, 
c [STAT] XOR(3) 0 steps, 720 empties, 0 listUnits, 0 useLists, 0 xorUnits, 0 eqs, 
c [STAT] XOR(4) 2799 participating, 0.847925 ratio, 0 simDecisions, 0 xorProps, 0 clsProps, 
c [STAT] BCE 0 seconds, 19972 steps, 1260 testLits, 0 remBCE, 0 BCMs, 0 BCMcands, 0 BCMlits, 
c [STAT] CLE 0 remCLE, 0 cleUnits, 
c [STAT] BCE-CLA 0 seconds, 0 steps, 0 testLits, 0 extClss, 0 extLits, 0 possibles, 
c [STAT] FM 0.001003 s, 4.7e-05 amo-s, 0.002917 fm-s, 0.000243 amt-s, 0 amos, 0 amts, 0 sameUnits, 0 deducedUnits, 0 propUnits, 0 cls, 0 steps, 29712 searchSteps, 0 addDups, 
c [STAT] FM(2) 0 irregulars, 0 pureAmoLits, 0 diff, 0 discards, 0 addedCs, 0 removedCs, 0 newAmos, 0 discardedNewAmos, 
c [STAT] FM(3) 0 newAmoBinCls, 0 newCls, 0 newAlos, 0 newAlks, 0 duplicates, 0 garbageCollecst, 
c [STAT] FM(4) 2e-06 2PrdTime, 0 2PrAmos, 0 2PrLits, 0 dedAloTime, 0 dedAlos, 
c [STAT] FM(5) time: 0.000651 s,steps: 27800 cards: 0 failed: 4782 extLits: 0 redDegree: 0 probes: 5275 conflictProbes: 1 savedPreCls: 0 savedPostCls: 0 units: 12324
c [STAT] DENSE 45 gaps
c Riss 7.1 used 4 seconds with exit code 10
c pp-time: 0 SLS-time: 171  CDCL-time: 4
c solved with: Riss 7.1
 c
c SparrowToRiss 2018
c Adrian Balint, Norbert Manthey
c
c undo: /home/lorenz/SAT2018/s2r_bin/tmp/cp_undo_48936 tmpCNF: /home/lorenz/SAT2018/s2r_bin/tmp/cp_tmpCNF_48936 model: /home/lorenz/SAT2018/s2r_bin/tmp/cp_model_48936 realModel: /home/lorenz/SAT2018/s2r_bin/tmp/model_48936
c preprocessed 0 seconds with exit code 0
c not solved by preprocessor -- do search
c post-process with coprocessor
c WARNING: for repeatability, setting FPU to use double precision
c =================[ riss (core) 7.1.0                    v7.1.0-dirty ]===================================
c | Norbert Manthey. The use of the tool is limited to research only!                                     |
c | Based on Minisat 2.2 and Glucose 2.1  -- thanks!                                                      |
c | Contributors:                                                                                         |
c |      Kilian Gebhardt                                                                                  |
c |      Lucas Kahlert, Franziska Krüger, Aaron Stephan                                                   |
c ============================[ Problem Statistics ]=======================================================
c |                                                                                                       |
c |  Number of variables:                360                                                              |
c |  Number of clauses:                 1980                                                              |
c |  Number of total literals:          5940                                                              |
c |  Parse time:                        0.00 s                                                            |
c |                                                                                                       |
c ========================================[ MAGIC CONSTANTS ]==============================================
c | Constants are supposed to work well together :-)                                                      |
c | however, if you find better choices, please let us known...                                           |
c |-------------------------------------------------------------------------------------------------------|
c |                                |                                |                                     |
c | - Restarts:                    | - Reduce Clause DB:            | - Minimize Asserting:               |
c |   * LBD Queue    :     50      |   * First     :   4000         |    * size <  30                     |
c |   * Trail  Queue :   5000      |   * Inc       :    300         |    * lbd  <   6                     |
c |   * K            :   0.80      |   * Special   :   1000         |                                     |
c |   * R            :   1.40      |   * Protected :  (lbd)< 30     |                                     |
c |                                |                                |                                     |
c =========================================================================================================
c =========================================================================================================
c | solve clauses:         2802  solve variables:          315                                            |
c =========================================================================================================
c ==================================[ Search Statistics (every  10000 conflicts) ]=========================
c |                                                                                                       |
c |          RESTARTS           |          ORIGINAL         |              LEARNT              | Progress |
c |       NB   Blocked  Avg Cfc |    Vars  Clauses Literals |   Red   Learnts    LBD2  Removed |          |
c =========================================================================================================
c |        1         0    10000 |     360     2802     9837 |     1     8041       15     1958 |  0.001 % | 
c |        1       147    20000 |     360     2802     9837 |     3     7142       28    12857 |  0.001 % | 
c |        1       295    30000 |     360     2802     9837 |     3    17142       48    12857 |  0.001 % | 
c |        1       446    40000 |     360     2802     9837 |     4    17961       61    22038 |  0.001 % | 
c |        2       584    25000 |     360     2802     9837 |     5    16221       84    33778 |  0.001 % | 
c |        2       734    30000 |     360     2802     9837 |     5    26221       93    33778 |  0.001 % | 
c |        2       894    35000 |     360     2802     9837 |     6    21905      101    48094 |  0.001 % | 
c |        2      1043    40000 |     360     2802     9837 |     6    31905      111    48094 |  0.001 % | 
c =========================================================================================================
c Tinimt-Ratios: ratioCpW: 0.93 ,overhead/Total 0.29 0.27 
c Timing(cpu,wall, in s): total: 3.71 4.00 ,prop: 2.25 2.48 ,analysis: 0.39 0.42 ,ext.Res.: 0.00 0.00 ,reduce: 0.03 0.03 ,overhead 1.07 1.09
c PP-Timing(cpu,wall, in s): preprocessing( 1 ): 0.00 0.01 ,inprocessing (0 ): 0.00 0.00
c Trivial Polarity: True: 0  False: 0
c Learnt At Level 1: 0  Multiple: 0 Units: 0
c LAs: 0.000000 laSeconds 0 LA assigned: 0 tabus: 0, failedLas: 0, maxEvery 0, eeV: 0 eeL: 0 
c otfss: 0 (l1: 0 ),cls: 0 ,units: 0 ,binaries: 0, eagerCandidates: 0
c learning: 89913 cls, 15.900671 avg. size, 10.325593 avg. LBD, 47 maxSize
c res.ext.res.: 0 rer, 0 rerSizeCands, 0 sizeReject, 0 patternReject, 0 bloomReject, 0 maxSize, 0.00 avgSize, 0.00 totalLits, 0 gates
c ER rewrite: 0 cls, 0 lits
c i.cls.strengthening: 0.00 seconds, 0 calls, 0 candidates, 0 droppedBefore, 0 shrinked, 0 shrinkedLits
c bi-asserting: 0 pre-Mini, 0 post-Mini, 0.000 rel-pre, 0.000 rel-post
c search-UHLE: 0 attempts, 0 rem-lits
c revMin: 9474 tries 15 succesful 15 dropped 0 cut 15 conflicts
c decisionClauses: 0
c IntervalRestarts: 0
c partial restarts: 1 saved decisions: 1 saved propagations: 1 recursives: 1
c uhd probe: 0.000000 s, 0 L2units, 0 L3units, 0 L4units
c LCM: 0.707200 s, 1 nbLCM, 10172 LCMclsAttempts, 2162 nbLCMclsSuccess, 1479 npConflLCMlits, 4207 nbLCMlits, 0 falsified, 0 positiveDrop, 3852 litsR1, 355 litsR2
c restarts              : 5 (17982 conflicts in avg)
c blocked restarts      : 1187 (multiple: 4) 
c last block at restart : 5
c nb ReduceDB           : 7
c nb removed Clauses    : 64999
c nb learnts DL2        : 119
c nb learnts size 2     : 0
c nb learnts size 1     : 0
c conflicts             : 89913          (24216 /sec)
c decisions             : 105640         (0.00 % random) (28452 /sec)
c propagations          : 4718059        (1270726 /sec)
c conflict literals     : 1429692        (22.77 % deleted)
c nb reduced Clauses    : 0
c Memory used           : 12.00 MB
c CPU time              : 3.71288 s
s SATISFIABLE
v 1 2 -3 -4 5 -6 -7 8 -9 -10 -11 -12 -13 -14 15 -16 -17 -18 19 20 21 -22 -23 -24 25 -26 -27 28 29 -30 -31 32 33 34 35 -36 37 38 39 -40 41 -42 -43 44 45 -46 -47 48 -49 50 51 -52 -53 54 55 56 57 -58 59 -60 -61 62 -63 64 -65 -66 -67 68 -69 -70 -71 72 73 74 75 -76 -77 -78 79 80 81 -82 -83 -84 -85 -86 87 -88 89 90 91 92 -93 94 -95 -96 -97 98 99 -100 -101 -102 103 104 -105 106 -107 108 -109 110 -111 112 -113 -114 -115 116 -117 -118 119 -120 121 -122 123 -124 -125 -126 -127 128 129 130 131 132 -133 -134 -135 136 -137 -138 139 -140 -141 142 143 -144 -145 -146 -147 -148 149 150 -151 152 -153 -154 155 156 157 -158 -159 -160 -161 162 163 164 165 166 -167 -168 -169 170 171 -172 173 174 -175 176 177 178 179 -180 -181 182 183 -184 185 -186 -187 188 -189 190 191 -192 193 194 -195 -196 -197 198 -199 -200 -201 -202 203 204 -205 -206 -207 208 209 210 -211 212 213 214 215 -216 -217 218 219 220 -221 -222 -223 224 225 -226 -227 228 -229 230 -231 232 233 -234 235 236 -237 238 239 -240 241 242 243 -244 245 246 247 248 249 250 -251 -252 -253 254 -255 256 257 -258 259 -260 -261 262 263 264 265 -266 267 268 269 270 -271 272 273 -274 -275 276 277 -278 -279 280 -281 282 -283 284 -285 286 287 288 289 290 -291 292 293 294 -295 -296 -297 -298 -299 -300 301 -302 -303 -304 -305 306 307 308 -309 -310 -311 312 313 314 315 -316 317 318 -319 320 -321 322 -323 -324 -325 -326 327 -328 329 330 331 332 -333 334 335 336 -337 338 339 340 -341 342 -343 -344 345 346 -347 -348 -349 350 -351 352 -353 354 355 -356 357 -358 359 360 0

